GLPSOL: GLPK LP/MIP Solver, v4.57
Parameter(s) specified in the command line:
 -m shortest_paths_without_parity.mod -d data/data_35_96.dat -o outputs/output_35_96.txt
Reading model section from shortest_paths_without_parity.mod...
40 lines were read
Reading data section from data/data_35_96.dat...
data/data_35_96.dat:87: warning: final NL missing before end of file
87 lines were read
Generating obj...
Generating cons1O1...
shortest_paths_without_parity.mod:24: S[35] out of domain
MathProg model processing error
